7
2147483647 99 62 65 88 48 42 
99 2147483647 81 63 53 17 37 
62 81 2147483647 32 98 30 56 
65 63 32 2147483647 67 76 47 
88 53 98 67 2147483647 53 73 
48 17 30 76 53 2147483647 62 
42 37 56 47 73 62 2147483647 
